<number of tasks>
50

<cycle time>
1000

<order strength>
0.596


<task times>
1 482
2 522
3 577
4 406
5 330
6 384
7 488
8 696
9 327
10 564
11 449
12 541
13 413
14 498
15 399
16 303
17 389
18 380
19 464
20 522
21 544
22 346
23 282
24 634
25 293
26 501
27 543
28 734
29 436
30 702
31 427
32 532
33 507
34 556
35 522
36 375
37 578
38 427
39 628
40 776
41 492
42 465
43 432
44 674
45 695
46 486
47 472
48 510
49 647
50 581

<precedence relations>
1,14
1,23
2,6
2,9
3,7
3,12
3,29
4,11
4,33
5,7
5,8
5,10
6,13
8,12
8,13
8,15
8,27
9,11
9,12
9,14
9,15
10,11
10,14
11,16
11,25
11,31
11,32
11,39
12,16
12,24
12,36
13,16
13,17
13,19
14,17
14,18
16,23
16,30
17,20
17,21
18,20
18,22
18,28
19,20
19,21
20,24
20,25
20,26
20,34
21,24
21,25
21,28
22,27
22,29
22,32
23,37
23,49
24,33
25,30
26,31
26,32
26,37
27,34
28,29
28,31
28,39
29,35
30,35
30,37
31,46
31,49
32,38
33,40
34,36
34,37
35,40
35,43
35,46
36,39
36,40
37,41
38,46
39,42
39,43
39,44
39,46
40,45
41,42
41,46
41,48
43,48
43,50
45,47
45,49
46,50

<end>
